Route #1:
Route #2: 2 17 13
Route #3: 5 30 7
Route #4: 27 20
Route #5: 26
Route #6: 24
Route #7: 31 6
Route #8: 11 9 29 10 1
Route #9: 4 22 15
Route #10: 16 21
Route #11: 14
Route #12: 12
Route #13: 8 18
Route #14: 28 19 3
Route #15: 23 25

Cost: 2218.0763678741387
